c 3 2 U
p cnf 4 10
-2 3 0
-1 4 0
-2 4 0
-4 -2 0
-4 -1 0
1 1 0
4 4 0
-4 -3 0
-1 -4 0
3 3 0
c 4 2 S
p cnf 4 10
2 1 0
-4 -1 0
1 -3 0
2 -3 0
1 -2 0
3 -2 0
3 -3 0
3 -2 0
2 -3 0
-3 3 0
c 5 2 S
p cnf 4 10
3 1 0
-2 -2 0
3 2 0
-1 -1 0
4 2 0
-2 2 0
-2 -1 0
-2 -2 0
3 -2 0
-2 4 0
c 6 2 S
p cnf 4 10
1 -3 0
-1 4 0
-3 3 0
2 -1 0
-3 4 0
1 4 0
-4 2 0
-1 2 0
-4 1 0
2 3 0
c 7 2 S
p cnf 4 10
-3 -4 0
-1 -3 0
-2 1 0
-4 -2 0
-4 -1 0
1 -1 0
-1 3 0
-2 -3 0
-1 -3 0
-1 2 0
c 8 2 U
p cnf 4 10
2 -4 0
-2 -1 0
-2 -4 0
4 4 0
-4 -4 0
-4 1 0
4 -4 0
-3 1 0
-4 1 0
-2 -4 0
c 9 2 U
p cnf 4 10
4 -3 0
-2 3 0
1 1 0
2 -4 0
-2 -1 0
-2 -4 0
-3 2 0
1 2 0
3 -1 0
1 1 0
c 10 2 U
p cnf 4 10
1 -4 0
2 4 0
-2 4 0
-1 -3 0
-4 3 0
4 3 0
2 -3 0
-4 4 0
-1 -2 0
2 -3 0
c 11 2 S
p cnf 4 10
4 -4 0
2 -2 0
4 -2 0
1 -4 0
-1 -1 0
-2 1 0
3 -2 0
3 -1 0
4 -4 0
3 2 0
c 12 2 S
p cnf 4 10
4 -3 0
-4 3 0
3 -2 0
2 -3 0
-3 -1 0
1 -4 0
-1 -2 0
4 1 0
2 -2 0
-2 4 0
c 13 2 U
p cnf 4 10
3 -2 0
-2 -2 0
-1 -3 0
-4 1 0
-2 3 0
-4 3 0
2 4 0
4 1 0
3 2 0
-4 -3 0
c 14 2 S
p cnf 4 10
-1 3 0
-3 4 0
4 -4 0
-3 3 0
3 -2 0
-3 -1 0
1 -1 0
-3 4 0
-4 1 0
-2 -4 0
c 15 2 S
p cnf 4 10
-2 -1 0
-2 -1 0
-3 1 0
4 3 0
3 -2 0
3 2 0
-4 4 0
-4 4 0
4 4 0
1 -1 0
c 16 2 U
p cnf 4 10
3 4 0
-4 -4 0
4 -2 0
1 3 0
2 -1 0
-3 -2 0
4 -3 0
3 3 0
1 4 0
2 1 0
c 17 2 U
p cnf 4 10
4 3 0
2 -1 0
2 4 0
3 -2 0
-2 -2 0
-3 1 0
-4 -4 0
4 1 0
-3 -3 0
4 1 0
c 18 2 U
p cnf 4 10
-2 4 0
-2 4 0
2 3 0
-3 -3 0
-3 -2 0
-2 -3 0
-4 3 0
1 -4 0
4 3 0
-3 3 0
c 19 2 U
p cnf 4 10
-1 2 0
3 2 0
1 4 0
-3 3 0
-1 -1 0
1 -4 0
1 -1 0
4 4 0
2 -2 0
2 -2 0
c 20 2 U
p cnf 4 10
2 1 0
-2 4 0
-1 2 0
4 -4 0
2 3 0
-4 4 0
-1 -2 0
-2 -1 0
3 3 0
-2 1 0
c 21 2 U
p cnf 4 10
2 4 0
-4 -4 0
-2 1 0
-4 -2 0
-2 4 0
-4 3 0
1 -1 0
-1 1 0
2 4 0
-2 1 0
c 22 2 S
p cnf 4 10
-2 1 0
-2 -3 0
2 1 0
2 -1 0
3 -4 0
-2 1 0
3 2 0
-3 3 0
2 1 0
1 3 0
c 23 2 U
p cnf 8 16
-5 1 0
7 -6 0
4 -8 0
4 -1 0
2 -7 0
7 -1 0
1 -3 0
6 5 0
2 3 0
-8 -3 0
-6 -2 0
2 1 0
5 2 0
5 -8 0
-5 -2 0
-8 -6 0
c 24 2 S
p cnf 8 16
-7 -4 0
-4 -2 0
-5 8 0
-2 3 0
8 -8 0
-5 6 0
2 -1 0
6 2 0
-2 3 0
5 -5 0
2 -3 0
6 -4 0
8 -4 0
-2 5 0
4 4 0
-7 8 0
c 25 2 S
p cnf 8 16
-7 4 0
-8 -5 0
5 -2 0
4 3 0
-8 2 0
7 -4 0
-8 2 0
-2 -1 0
-2 7 0
7 8 0
1 -5 0
1 7 0
1 4 0
-6 -3 0
-2 -3 0
-4 -6 0
c 26 2 U
p cnf 8 16
-4 -7 0
3 -1 0
-7 -7 0
-1 -3 0
4 7 0
-4 1 0
-2 1 0
6 7 0
-4 -5 0
7 -3 0
-2 -3 0
1 4 0
2 2 0
1 -8 0
1 -2 0
-2 5 0
c 27 2 S
p cnf 8 16
8 -5 0
-2 5 0
5 -7 0
-4 -8 0
2 -7 0
8 1 0
-5 -6 0
-3 7 0
-1 3 0
3 -1 0
1 3 0
-7 5 0
8 1 0
3 3 0
-6 -4 0
4 2 0
c 28 2 S
p cnf 8 16
-2 -3 0
3 -7 0
-4 -7 0
-3 -4 0
-7 -2 0
7 -3 0
-5 -8 0
-4 5 0
2 2 0
-3 -6 0
1 8 0
3 5 0
-3 3 0
4 -1 0
-4 6 0
-7 -8 0
c 29 2 S
p cnf 8 16
2 -5 0
6 -7 0
-1 -8 0
-6 8 0
-7 -8 0
4 -7 0
7 -5 0
7 3 0
5 -7 0
-6 -5 0
-6 -7 0
7 8 0
3 4 0
-1 7 0
3 3 0
-1 1 0
c 30 2 S
p cnf 8 16
-5 4 0
1 -7 0
2 -1 0
-1 3 0
-6 -7 0
4 -7 0
-5 8 0
3 5 0
-2 4 0
-2 7 0
-3 8 0
8 -6 0
-1 8 0
5 5 0
-3 3 0
-7 4 0
c 31 2 S
p cnf 8 16
1 2 0
-3 -3 0
-4 -3 0
-1 4 0
-7 -2 0
1 -6 0
4 7 0
-4 4 0
-1 3 0
-3 3 0
-1 -8 0
4 -6 0
-6 -8 0
5 5 0
7 -6 0
2 3 0
c 32 2 U
p cnf 8 16
-2 3 0
4 -1 0
2 -6 0
8 -1 0
1 4 0
4 2 0
-2 -2 0
-8 -7 0
1 -4 0
8 -8 0
-5 1 0
4 -6 0
4 5 0
2 -1 0
-8 -2 0
3 1 0
c 33 2 S
p cnf 8 16
-3 5 0
3 8 0
-5 5 0
5 1 0
5 -4 0
1 -5 0
2 2 0
4 -6 0
6 7 0
-3 1 0
-2 -3 0
2 -1 0
7 -6 0
4 8 0
6 5 0
-2 8 0
c 34 2 S
p cnf 8 16
-6 -4 0
7 2 0
5 -2 0
2 -6 0
-3 1 0
-5 -7 0
5 7 0
-4 -8 0
3 -7 0
-4 2 0
5 2 0
-4 7 0
-8 8 0
8 3 0
-5 -4 0
5 2 0
c 35 2 S
p cnf 8 16
-6 -6 0
5 -5 0
5 2 0
-1 2 0
-6 6 0
-1 4 0
-2 -6 0
2 -6 0
-5 -2 0
8 6 0
-7 5 0
-1 6 0
-2 7 0
4 -7 0
-5 -4 0
-1 -2 0
c 36 2 S
p cnf 8 16
-6 1 0
-2 -3 0
5 6 0
2 8 0
6 4 0
-3 -8 0
-5 8 0
-3 7 0
-3 7 0
4 -5 0
4 5 0
-2 -5 0
-3 -2 0
6 1 0
6 3 0
-2 -8 0
c 37 2 S
p cnf 8 16
-2 6 0
2 5 0
7 -3 0
2 2 0
6 -6 0
4 -2 0
1 -2 0
1 -6 0
-1 4 0
4 1 0
-5 -8 0
4 1 0
-8 1 0
-4 -8 0
6 -1 0
-3 -3 0
c 38 2 U
p cnf 8 16
7 -2 0
6 -6 0
3 6 0
6 8 0
-4 -8 0
-7 1 0
-6 3 0
2 -2 0
-8 2 0
-5 6 0
7 5 0
3 -5 0
-6 -4 0
-5 3 0
4 -2 0
-6 4 0
c 39 2 U
p cnf 8 16
4 -7 0
-4 -7 0
5 -3 0
-5 -6 0
2 6 0
2 5 0
2 7 0
-6 -1 0
8 6 0
7 -8 0
-7 3 0
-5 2 0
-8 -7 0
1 1 0
-3 2 0
-4 -4 0
c 40 2 S
p cnf 8 16
-8 4 0
-4 6 0
-8 -3 0
4 -1 0
-6 5 0
-3 -7 0
6 -4 0
-5 5 0
-8 4 0
-7 -3 0
-1 8 0
-2 4 0
-8 8 0
8 -4 0
-1 -7 0
-8 -7 0
c 41 2 S
p cnf 8 16
7 -4 0
7 5 0
-1 1 0
-3 -6 0
-5 -2 0
7 -4 0
6 -3 0
-2 -3 0
1 -6 0
-1 -7 0
5 -3 0
2 1 0
-7 -1 0
-3 8 0
7 -1 0
8 -3 0
c 42 2 S
p cnf 8 16
-2 -5 0
-4 -2 0
-7 -1 0
-4 -1 0
-7 8 0
-1 7 0
-5 4 0
-2 -7 0
6 -5 0
-8 -7 0
5 -4 0
-1 -5 0
-4 7 0
8 3 0
-6 -5 0
-3 3 0
c 43 2 S
p cnf 12 24
1 -12 0
8 -11 0
8 -10 0
9 10 0
10 -7 0
-1 2 0
-3 3 0
3 10 0
-10 -7 0
-1 -3 0
3 -5 0
-9 -10 0
2 11 0
6 -3 0
2 1 0
-6 -11 0
-9 5 0
12 12 0
1 -7 0
-6 -11 0
-11 10 0
2 -8 0
-3 -2 0
-3 -6 0
c 44 2 U
p cnf 12 24
-7 3 0
4 -1 0
-2 -2 0
9 12 0
10 12 0
-6 6 0
-10 -2 0
-10 5 0
2 1 0
-7 8 0
-4 3 0
-12 -1 0
11 -12 0
12 6 0
11 -10 0
4 8 0
-10 -5 0
-1 1 0
-6 -7 0
6 -2 0
-10 -7 0
11 -2 0
-3 10 0
-11 -5 0
c 45 2 U
p cnf 12 24
5 8 0
2 -6 0
2 -1 0
-5 -5 0
-10 3 0
-12 4 0
2 -3 0
-1 6 0
6 2 0
-2 6 0
7 -10 0
8 4 0
-3 4 0
12 -5 0
7 -7 0
10 -9 0
9 -1 0
10 6 0
-3 1 0
1 -2 0
10 10 0
8 4 0
-5 -11 0
-8 -3 0
c 46 2 S
p cnf 12 24
2 -1 0
-11 -10 0
-1 -6 0
-1 9 0
9 -12 0
7 -6 0
8 2 0
-12 -7 0
6 12 0
-3 10 0
2 8 0
3 5 0
-4 -10 0
10 2 0
2 -9 0
-6 -12 0
2 2 0
-3 -11 0
5 -10 0
-9 -4 0
-6 2 0
-8 3 0
9 12 0
-7 7 0
c 47 2 U
p cnf 12 24
-6 7 0
10 5 0
-7 -7 0
-2 5 0
-12 6 0
-4 9 0
-8 1 0
12 10 0
-9 -4 0
3 2 0
10 9 0
-2 12 0
4 -12 0
7 11 0
4 -6 0
8 10 0
-5 -10 0
-11 7 0
-5 -8 0
-3 2 0
9 7 0
1 11 0
12 -1 0
4 -7 0
c 48 2 S
p cnf 12 24
9 3 0
-9 12 0
-3 -11 0
-8 -4 0
-8 -1 0
-7 3 0
-11 -3 0
12 6 0
-2 5 0
-11 10 0
-11 6 0
-3 7 0
1 2 0
10 10 0
-12 -2 0
3 8 0
-7 1 0
7 -6 0
10 8 0
10 3 0
4 -10 0
-11 -4 0
3 11 0
10 10 0
c 49 2 U
p cnf 12 24
2 -7 0
-6 -11 0
12 3 0
-12 -11 0
10 10 0
-7 -4 0
2 12 0
6 5 0
-10 11 0
-12 -11 0
10 9 0
3 4 0
5 10 0
12 7 0
-12 -9 0
-1 2 0
-2 12 0
-12 7 0
2 4 0
5 3 0
8 -2 0
12 8 0
-11 -11 0
-11 4 0
c 50 2 U
p cnf 12 24
8 -6 0
12 -6 0
9 -4 0
3 2 0
-6 -4 0
6 -11 0
2 12 0
-1 6 0
-7 4 0
5 3 0
-10 -9 0
-7 11 0
-7 8 0
2 -9 0
1 1 0
-8 -3 0
3 -7 0
-6 -11 0
-2 11 0
9 8 0
7 2 0
2 -1 0
2 -11 0
5 6 0
c 51 2 S
p cnf 12 24
-4 -4 0
9 7 0
12 10 0
7 -7 0
-2 9 0
1 -11 0
6 6 0
-11 1 0
3 -1 0
-2 3 0
1 -7 0
-6 -8 0
10 8 0
2 -11 0
-7 -8 0
9 9 0
-11 6 0
-9 10 0
9 4 0
10 -4 0
6 5 0
4 12 0
5 3 0
-3 5 0
c 52 2 U
p cnf 12 24
-5 12 0
6 -1 0
3 3 0
-8 1 0
-8 -4 0
-3 -8 0
11 8 0
-7 1 0
2 11 0
-9 3 0
-9 -5 0
-6 12 0
10 -10 0
-4 4 0
-8 -3 0
-3 -3 0
-5 9 0
-2 -12 0
-3 10 0
-10 4 0
-9 -2 0
-1 6 0
2 -1 0
-9 2 0
c 53 2 S
p cnf 12 24
-10 8 0
12 12 0
-12 -1 0
-6 -5 0
-3 -6 0
-8 -4 0
3 9 0
9 1 0
-5 2 0
7 -4 0
1 11 0
4 -10 0
-3 -1 0
1 7 0
-5 1 0
-7 -3 0
9 11 0
-11 -8 0
9 -6 0
-8 10 0
2 2 0
-7 -5 0
11 4 0
-10 -5 0
c 54 2 U
p cnf 12 24
3 9 0
8 -7 0
8 10 0
-4 1 0
9 -10 0
9 9 0
7 -9 0
2 5 0
-10 -7 0
6 -1 0
-12 -3 0
-7 -1 0
8 -10 0
-8 -4 0
11 -9 0
6 7 0
7 -9 0
8 -5 0
6 -5 0
1 4 0
3 10 0
9 6 0
-1 10 0
7 7 0
c 55 2 S
p cnf 12 24
-2 3 0
-2 -5 0
6 9 0
7 6 0
-9 11 0
-1 -9 0
10 -4 0
-7 2 0
-4 4 0
3 -6 0
2 5 0
-6 4 0
-3 4 0
-9 -8 0
-5 12 0
-8 -7 0
-5 12 0
5 -5 0
2 8 0
-8 8 0
9 2 0
4 9 0
-8 11 0
-1 11 0
c 56 2 U
p cnf 12 24
-9 8 0
9 -12 0
2 -10 0
6 -10 0
-1 -1 0
-7 3 0
-4 -2 0
-9 -8 0
12 -3 0
-4 -4 0
3 12 0
-1 10 0
-1 -9 0
10 7 0
8 4 0
9 -11 0
-11 3 0
12 -3 0
4 3 0
-8 -3 0
10 -9 0
-9 1 0
10 -4 0
9 11 0
c 57 2 S
p cnf 12 24
1 -10 0
4 8 0
7 -1 0
9 7 0
2 9 0
-11 -10 0
3 -9 0
10 -9 0
10 -6 0
4 -7 0
7 1 0
-8 -7 0
10 -8 0
12 -9 0
-5 5 0
6 11 0
1 -11 0
-3 11 0
-5 1 0
12 -4 0
-10 -12 0
1 -6 0
-11 -10 0
-11 -10 0
c 58 2 U
p cnf 12 24
-10 -4 0
-1 8 0
6 5 0
10 -5 0
1 4 0
2 9 0
11 -1 0
-11 -5 0
3 -5 0
-10 -11 0
-3 -8 0
-3 -12 0
1 -5 0
8 10 0
10 3 0
-5 -8 0
-10 -8 0
-3 8 0
6 8 0
12 -3 0
-3 -9 0
1 -1 0
-4 -2 0
-8 9 0
c 59 2 U
p cnf 12 24
-4 11 0
-1 -5 0
-11 8 0
8 3 0
-11 -9 0
2 -11 0
6 -2 0
-4 -10 0
5 -2 0
-6 11 0
-1 8 0
-9 6 0
12 -10 0
1 10 0
9 11 0
-6 -9 0
-8 4 0
4 4 0
-9 -6 0
6 10 0
-11 1 0
-2 10 0
1 -8 0
5 9 0
c 60 2 S
p cnf 12 24
5 -10 0
-5 8 0
-6 -2 0
3 -1 0
-11 -7 0
3 -10 0
-9 -10 0
-5 -1 0
-5 9 0
-2 3 0
-4 -10 0
9 8 0
-7 -9 0
-1 -9 0
-2 7 0
9 12 0
-9 6 0
-8 9 0
1 -5 0
-2 -7 0
9 1 0
1 -2 0
-10 -2 0
6 -8 0
c 61 2 S
p cnf 12 24
-8 -9 0
6 -6 0
8 -6 0
7 -6 0
-6 -9 0
-11 -6 0
-7 3 0
5 12 0
8 10 0
-11 12 0
7 -4 0
-3 9 0
-8 9 0
2 1 0
-3 8 0
-12 -7 0
2 10 0
1 5 0
-7 -3 0
7 2 0
11 11 0
1 -12 0
12 3 0
-8 -2 0
c 62 2 S
p cnf 12 24
-10 -2 0
8 11 0
-3 -3 0
-5 -2 0
8 -9 0
-6 -12 0
-12 6 0
-10 10 0
5 6 0
1 5 0
4 -4 0
-10 -10 0
-1 -4 0
2 8 0
-5 -6 0
-6 7 0
6 -8 0
-6 -2 0
12 -2 0
11 -6 0
-7 11 0
-5 7 0
8 1 0
2 11 0
c 63 2 U
p cnf 16 32
15 10 0
-16 -13 0
-3 -10 0
-10 -8 0
-11 -9 0
-2 8 0
14 -16 0
-4 2 0
-11 -1 0
1 -15 0
-12 -12 0
12 3 0
-3 8 0
-15 2 0
7 -11 0
10 4 0
5 -5 0
-10 -16 0
-2 -14 0
13 -9 0
-16 8 0
1 -16 0
3 12 0
-6 16 0
6 -12 0
14 6 0
-15 9 0
2 12 0
14 16 0
-13 5 0
1 -11 0
6 -14 0
c 64 2 S
p cnf 16 32
-16 -13 0
7 -7 0
3 -15 0
-1 -13 0
-3 -4 0
-9 -7 0
1 -13 0
-10 14 0
10 -16 0
-2 8 0
-6 -8 0
-9 -8 0
-10 6 0
-8 -8 0
9 15 0
-12 -9 0
6 -2 0
-2 -4 0
6 9 0
-16 16 0
-2 -11 0
4 -10 0
13 -12 0
11 -1 0
-10 -13 0
8 9 0
3 10 0
1 -12 0
4 12 0
-4 -3 0
4 -13 0
-13 5 0
c 65 2 U
p cnf 16 32
14 -10 0
15 15 0
-14 3 0
-9 -16 0
-9 -6 0
-4 12 0
-12 8 0
15 -2 0
1 9 0
-9 6 0
3 -1 0
6 -14 0
14 -8 0
10 7 0
1 3 0
10 -6 0
-5 9 0
13 3 0
-5 16 0
10 11 0
5 -1 0
6 -2 0
-9 5 0
-10 10 0
5 5 0
3 -9 0
-8 13 0
-9 8 0
1 12 0
6 -13 0
-9 -9 0
-14 9 0
c 66 2 U
p cnf 16 32
3 -14 0
15 -9 0
-16 -15 0
3 6 0
-15 4 0
5 -1 0
7 7 0
16 7 0
-3 11 0
-13 -10 0
13 -1 0
12 -14 0
-13 14 0
16 -12 0
-6 11 0
1 16 0
15 -2 0
10 4 0
2 -4 0
-13 -6 0
-6 -14 0
4 -13 0
-3 -16 0
6 -12 0
4 -14 0
9 3 0
6 -6 0
-5 -3 0
4 -4 0
9 -14 0
4 11 0
10 -1 0
c 67 2 S
p cnf 16 32
-3 14 0
14 14 0
-9 -2 0
-10 6 0
-6 4 0
-10 -13 0
-13 5 0
1 8 0
2 6 0
1 -12 0
-1 -1 0
8 3 0
1 -16 0
-7 14 0
4 3 0
15 -8 0
5 -16 0
-11 16 0
10 -12 0
4 -3 0
-15 5 0
-10 2 0
1 -10 0
-8 5 0
1 -12 0
4 3 0
2 -7 0
7 -4 0
2 10 0
-10 4 0
15 10 0
-10 -13 0
c 68 2 U
p cnf 16 32
-15 8 0
16 11 0
-12 -4 0
-16 -11 0
-3 -7 0
1 15 0
-5 5 0
-5 1 0
13 -3 0
14 13 0
4 -14 0
-2 14 0
-6 3 0
12 8 0
13 15 0
13 -1 0
4 7 0
7 16 0
-4 3 0
6 1 0
5 14 0
-12 9 0
-11 -6 0
14 8 0
16 -14 0
15 -16 0
-8 9 0
-9 -8 0
-16 8 0
10 -3 0
3 -16 0
12 -4 0
c 69 2 U
p cnf 16 32
-2 -6 0
12 14 0
14 11 0
5 -13 0
14 -5 0
5 -7 0
-4 -13 0
9 -2 0
-4 -1 0
-8 -9 0
-16 11 0
-14 -9 0
4 13 0
5 -16 0
-9 -13 0
9 16 0
-9 12 0
-2 15 0
-5 12 0
-7 13 0
8 -15 0
2 -4 0
16 7 0
-3 -13 0
-3 -15 0
16 4 0
13 -16 0
-2 3 0
-1 5 0
-7 -10 0
-12 -16 0
10 -1 0
c 70 2 U
p cnf 16 32
4 15 0
5 -4 0
7 -13 0
-13 11 0
13 -4 0
2 12 0
-5 9 0
4 -3 0
-12 -3 0
-13 -10 0
-12 -7 0
3 -13 0
5 14 0
-5 9 0
-3 -4 0
-15 -2 0
-9 -9 0
-14 3 0
-10 7 0
-11 9 0
2 -2 0
-2 -14 0
11 8 0
-3 13 0
-9 -7 0
-5 16 0
-1 13 0
14 8 0
-9 12 0
6 -10 0
10 2 0
5 5 0
c 71 2 U
p cnf 16 32
-11 -9 0
7 -3 0
-2 1 0
-15 -12 0
2 1 0
-7 11 0
-15 -1 0
-5 8 0
-10 9 0
7 -1 0
-4 4 0
5 16 0
12 -4 0
-10 6 0
16 -9 0
-9 -2 0
8 11 0
8 -5 0
16 -8 0
-3 15 0
15 9 0
13 16 0
1 7 0
10 -1 0
14 3 0
8 5 0
12 2 0
-13 10 0
-10 9 0
11 9 0
4 -16 0
9 6 0
c 72 2 U
p cnf 16 32
-3 12 0
-10 -11 0
-13 -1 0
-15 -15 0
-10 -11 0
14 9 0
-12 12 0
8 -16 0
10 -11 0
-15 -2 0
11 2 0
-3 -10 0
15 2 0
-13 4 0
3 15 0
-16 3 0
10 -8 0
-9 4 0
-1 -16 0
1 -7 0
4 -15 0
-12 1 0
5 4 0
10 6 0
1 6 0
-13 -12 0
7 12 0
-2 -11 0
-12 -5 0
-14 -4 0
11 -12 0
-2 -4 0
c 73 2 S
p cnf 16 32
-9 -16 0
15 3 0
-13 -15 0
1 -14 0
14 14 0
-14 2 0
-7 15 0
-10 -8 0
7 -9 0
-8 -14 0
-3 -7 0
5 15 0
8 -10 0
2 4 0
-13 3 0
-14 11 0
-3 -8 0
10 14 0
-14 -16 0
-4 9 0
-3 -11 0
-8 2 0
-7 -14 0
-13 -1 0
-5 -13 0
-13 4 0
9 -9 0
10 -12 0
15 16 0
6 10 0
3 -12 0
3 -12 0
c 74 2 U
p cnf 16 32
4 4 0
-6 -12 0
15 9 0
6 -9 0
-2 8 0
5 8 0
9 -1 0
-6 7 0
-2 -1 0
13 -13 0
-6 14 0
15 -4 0
-6 15 0
5 -5 0
-10 10 0
10 6 0
-4 6 0
-14 -11 0
4 -7 0
10 -5 0
-16 10 0
3 -2 0
6 -16 0
-15 10 0
15 -7 0
8 -6 0
13 4 0
5 6 0
-4 1 0
-5 -2 0
6 -8 0
-15 -14 0
c 75 2 U
p cnf 16 32
15 -15 0
16 4 0
3 9 0
12 9 0
1 -15 0
-5 5 0
-16 -15 0
-10 -3 0
9 -7 0
3 4 0
-12 15 0
-10 8 0
-1 10 0
15 -1 0
-15 9 0
6 9 0
16 4 0
9 15 0
4 13 0
-11 16 0
12 3 0
-5 13 0
7 -15 0
-5 2 0
15 -16 0
1 -12 0
-12 5 0
7 16 0
-16 -13 0
-13 -12 0
-7 12 0
9 7 0
c 76 2 U
p cnf 16 32
12 -13 0
-10 -14 0
10 15 0
-8 11 0
8 -2 0
14 8 0
-15 3 0
-5 -8 0
-10 -4 0
-1 16 0
6 15 0
-6 16 0
7 12 0
-5 -1 0
-4 -5 0
13 -13 0
-5 2 0
-3 2 0
-15 -3 0
11 -4 0
-14 3 0
14 16 0
11 2 0
-13 8 0
-4 -16 0
14 -10 0
10 -1 0
16 -16 0
4 10 0
-16 -4 0
8 7 0
9 -6 0
c 77 2 S
p cnf 16 32
9 -7 0
-7 10 0
-8 1 0
1 -6 0
-13 11 0
-4 9 0
-7 -7 0
-3 -15 0
-4 -11 0
4 -3 0
9 4 0
2 -8 0
16 5 0
-1 2 0
2 -14 0
9 2 0
-4 -10 0
1 12 0
-1 -16 0
-1 -8 0
-15 13 0
-4 8 0
-7 -6 0
-5 -2 0
13 16 0
4 14 0
9 -15 0
1 -3 0
-1 -1 0
-4 3 0
-6 13 0
15 -13 0
c 78 2 S
p cnf 16 32
-7 10 0
-14 5 0
7 -13 0
-8 12 0
11 -6 0
12 -2 0
-4 5 0
-10 -9 0
-13 -1 0
15 8 0
3 -14 0
-5 12 0
-10 -2 0
-13 -1 0
4 -14 0
3 7 0
15 -14 0
-3 7 0
-16 -16 0
-3 1 0
-11 5 0
-10 4 0
-5 1 0
1 2 0
-13 -13 0
-13 -16 0
10 2 0
12 12 0
-6 14 0
16 -2 0
3 11 0
-11 -5 0
c 79 2 S
p cnf 16 32
5 -12 0
-8 -16 0
3 -1 0
4 -10 0
14 -12 0
-13 9 0
2 -15 0
2 -4 0
-8 13 0
-12 11 0
-9 -3 0
-12 5 0
7 -11 0
-6 -12 0
-14 -1 0
8 15 0
-8 -12 0
-7 -16 0
2 5 0
-3 -16 0
-4 10 0
9 -8 0
9 -8 0
-4 9 0
-1 1 0
10 11 0
9 10 0
5 -9 0
-5 4 0
-12 16 0
3 -15 0
16 13 0
c 80 2 S
p cnf 16 32
9 14 0
12 -12 0
-13 2 0
-8 -1 0
-15 -6 0
12 -6 0
9 3 0
-4 -1 0
10 -12 0
11 -4 0
16 2 0
7 11 0
-12 2 0
-7 -4 0
-6 9 0
-16 3 0
-15 16 0
-5 7 0
-13 -4 0
5 9 0
10 -7 0
11 -9 0
1 12 0
-14 -8 0
-12 9 0
11 -12 0
-4 -5 0
-6 15 0
1 -6 0
-4 -2 0
9 -11 0
-11 8 0
c 81 2 U
p cnf 16 32
15 13 0
-1 5 0
1 10 0
8 -5 0
7 6 0
6 8 0
8 1 0
12 12 0
-12 -6 0
14 -9 0
8 -4 0
-7 6 0
-13 1 0
-6 4 0
-13 2 0
-1 12 0
14 4 0
2 -7 0
1 7 0
-10 16 0
-11 9 0
9 -5 0
-2 -3 0
-9 -10 0
6 -6 0
8 10 0
-7 8 0
-12 10 0
10 3 0
-4 5 0
7 -15 0
-7 -14 0
c 82 2 U
p cnf 16 32
5 -10 0
6 -6 0
14 -4 0
-10 4 0
3 12 0
3 -6 0
8 -10 0
12 14 0
10 -9 0
12 -4 0
-10 -7 0
-12 3 0
1 -14 0
10 -7 0
15 -1 0
14 -16 0
-11 14 0
13 -12 0
16 -8 0
2 15 0
-7 14 0
5 -9 0
7 -15 0
-13 -3 0
3 16 0
5 6 0
13 -10 0
-4 7 0
-12 -6 0
-10 11 0
14 13 0
8 -2 0
c 83 2 S
p cnf 20 40
16 -3 0
-13 -2 0
-7 -10 0
2 5 0
-10 -16 0
-15 -2 0
1 12 0
-19 18 0
16 20 0
-15 5 0
-17 -19 0
1 -15 0
-15 4 0
19 -5 0
9 4 0
-3 4 0
-19 6 0
15 11 0
-16 19 0
-19 18 0
-20 17 0
15 -4 0
-15 19 0
-6 16 0
-16 17 0
2 -20 0
19 -13 0
10 11 0
-6 -3 0
-4 -9 0
16 -4 0
-19 20 0
-14 3 0
18 -16 0
-17 8 0
-14 4 0
8 15 0
19 -1 0
17 19 0
14 10 0
c 84 2 U
p cnf 20 40
-10 -16 0
17 7 0
16 -20 0
18 17 0
13 -20 0
5 -2 0
-5 16 0
-18 -1 0
7 5 0
4 -4 0
-18 -15 0
5 -1 0
-18 6 0
6 12 0
5 -14 0
-18 -3 0
-16 20 0
-3 14 0
13 12 0
-9 1 0
20 18 0
-19 -19 0
13 11 0
17 -16 0
-13 -9 0
-5 10 0
6 8 0
20 -4 0
-3 -5 0
11 6 0
-20 1 0
4 -12 0
7 -12 0
-15 -9 0
-11 1 0
19 -18 0
-20 15 0
15 17 0
4 -10 0
10 8 0
c 85 2 U
p cnf 20 40
-7 -11 0
8 -12 0
-13 19 0
20 -4 0
-18 14 0
20 -16 0
-8 -14 0
-12 1 0
-19 -17 0
2 -11 0
2 4 0
-6 12 0
-18 -8 0
-12 -9 0
16 -4 0
2 -11 0
-6 12 0
-18 -6 0
5 12 0
6 2 0
-3 17 0
8 15 0
-20 8 0
20 -10 0
10 12 0
5 9 0
-7 7 0
-11 -11 0
-8 19 0
-4 -20 0
5 -3 0
-1 13 0
18 -3 0
-1 -19 0
-9 -2 0
7 -6 0
-11 -10 0
-10 -10 0
-3 -11 0
-4 5 0
c 86 2 U
p cnf 20 40
1 -1 0
17 -13 0
-17 14 0
-1 7 0
-2 13 0
3 -13 0
10 5 0
12 14 0
-7 2 0
9 17 0
12 20 0
14 6 0
17 -14 0
-4 -6 0
13 -8 0
-18 2 0
-15 -15 0
17 6 0
13 8 0
-17 -11 0
-10 11 0
1 9 0
8 10 0
18 15 0
-14 -3 0
-6 -14 0
-9 14 0
14 -19 0
19 5 0
2 -13 0
-7 19 0
6 2 0
-18 -1 0
3 9 0
6 -5 0
-11 4 0
-3 -9 0
8 17 0
-18 17 0
8 -5 0
c 87 2 S
p cnf 20 40
-5 -18 0
9 18 0
4 1 0
-13 -16 0
7 -6 0
-10 9 0
20 11 0
7 7 0
19 2 0
4 -11 0
19 -16 0
-2 2 0
-16 14 0
1 5 0
10 -13 0
-19 -12 0
-11 -4 0
9 -12 0
8 -10 0
-14 20 0
-2 -12 0
-1 -5 0
2 7 0
-10 18 0
-19 12 0
-11 6 0
6 7 0
10 -16 0
5 13 0
7 -9 0
4 4 0
3 -14 0
-9 3 0
15 -1 0
-6 -5 0
4 1 0
-10 -20 0
-14 -12 0
14 19 0
-18 20 0
c 88 2 U
p cnf 20 40
-13 -11 0
-1 11 0
-5 -4 0
-20 15 0
11 5 0
-6 15 0
-2 8 0
-7 -6 0
8 -17 0
16 17 0
-16 -16 0
-13 -5 0
14 -1 0
-4 13 0
-11 14 0
-17 15 0
19 20 0
6 10 0
17 14 0
2 -14 0
14 -2 0
-11 17 0
-10 -18 0
-10 2 0
-18 -8 0
14 5 0
-2 16 0
20 3 0
17 7 0
-1 -11 0
7 -20 0
16 19 0
-8 10 0
11 12 0
15 13 0
20 6 0
7 6 0
16 14 0
-7 -11 0
-1 4 0
c 89 2 U
p cnf 20 40
3 5 0
-3 14 0
7 -11 0
-19 -15 0
-8 19 0
2 -3 0
14 3 0
9 -5 0
-1 -17 0
-3 -11 0
-12 -10 0
18 13 0
11 7 0
-17 19 0
14 6 0
8 -18 0
-15 10 0
19 3 0
7 20 0
-2 8 0
-15 -17 0
-15 9 0
-11 -9 0
-14 -19 0
17 -2 0
-5 -9 0
20 -9 0
-7 -19 0
-2 9 0
13 10 0
16 5 0
-14 -11 0
14 -15 0
-7 5 0
6 -8 0
14 -11 0
11 8 0
3 7 0
2 11 0
-18 7 0
c 90 2 S
p cnf 20 40
-7 16 0
12 19 0
9 9 0
-3 2 0
12 -4 0
-18 -2 0
-1 17 0
-7 4 0
-3 -1 0
-8 1 0
-17 16 0
11 6 0
10 11 0
-16 16 0
18 -14 0
-9 -10 0
19 -16 0
-4 -18 0
8 -7 0
12 9 0
4 2 0
-16 -14 0
19 -13 0
-1 -14 0
13 20 0
-1 10 0
-4 -2 0
-18 3 0
-16 13 0
-7 -13 0
15 2 0
20 -8 0
9 -16 0
8 16 0
-11 4 0
9 5 0
6 13 0
6 -17 0
-8 1 0
-7 -6 0
c 91 2 U
p cnf 20 40
-3 6 0
15 15 0
-9 7 0
-16 7 0
-3 15 0
13 13 0
6 6 0
-12 -9 0
-17 13 0
-6 3 0
14 17 0
5 11 0
-19 12 0
-12 20 0
6 -7 0
-20 -14 0
1 -18 0
1 1 0
7 -12 0
-14 8 0
-19 13 0
17 -9 0
-2 4 0
-6 15 0
11 11 0
17 -7 0
-9 2 0
-3 7 0
12 -16 0
9 -10 0
-8 4 0
-7 -11 0
-5 18 0
17 4 0
9 20 0
3 -12 0
-11 -7 0
-18 -4 0
-6 -14 0
1 7 0
c 92 2 S
p cnf 20 40
14 4 0
-6 19 0
-2 -1 0
-19 -20 0
14 -6 0
5 3 0
12 2 0
-6 -8 0
-8 -16 0
13 10 0
-4 12 0
5 -11 0
3 -16 0
10 5 0
8 -7 0
-11 -2 0
5 -16 0
-3 17 0
-18 -1 0
14 -18 0
8 15 0
18 -6 0
14 -18 0
19 3 0
6 -19 0
17 -2 0
10 -1 0
-7 11 0
-20 7 0
-11 13 0
-10 2 0
10 -20 0
19 -18 0
11 10 0
-19 -11 0
-11 7 0
10 15 0
7 15 0
-4 -9 0
-4 16 0
c 93 2 U
p cnf 20 40
16 -4 0
-12 6 0
-4 -19 0
-20 20 0
-13 -3 0
8 6 0
20 -11 0
-16 -3 0
-6 -3 0
-10 -7 0
19 5 0
-15 16 0
-6 -18 0
9 -20 0
-17 -10 0
-14 1 0
-1 17 0
5 -18 0
-9 2 0
-2 3 0
7 2 0
19 6 0
11 -10 0
1 2 0
-17 6 0
-16 11 0
-2 -19 0
-10 -18 0
-10 5 0
-18 16 0
-14 -7 0
-14 8 0
2 -14 0
10 -16 0
13 -14 0
16 2 0
-8 11 0
-4 -4 0
17 -7 0
6 -9 0
c 94 2 U
p cnf 20 40
-18 4 0
10 1 0
12 14 0
-18 -14 0
14 15 0
-7 14 0
6 -5 0
10 -9 0
12 -12 0
-18 -9 0
2 -11 0
-9 -2 0
-16 -16 0
-7 20 0
-2 -18 0
-7 2 0
-19 -8 0
8 6 0
7 12 0
-5 20 0
-14 -15 0
18 11 0
-17 11 0
-7 -17 0
-5 -19 0
5 16 0
-7 15 0
-13 -1 0
-20 -12 0
-13 -2 0
-4 -15 0
20 -9 0
10 12 0
-1 20 0
10 -11 0
-19 -3 0
-17 10 0
16 -16 0
-15 -10 0
-1 -9 0
c 95 2 U
p cnf 20 40
-18 -16 0
-5 -20 0
-9 -2 0
4 9 0
-12 -6 0
13 -20 0
20 20 0
-17 -4 0
12 -10 0
1 17 0
10 7 0
20 -4 0
-3 -1 0
-13 17 0
-19 13 0
-5 15 0
7 10 0
-17 -9 0
-8 -6 0
-3 7 0
1 -10 0
-13 -8 0
20 -18 0
1 14 0
14 2 0
15 4 0
7 2 0
8 5 0
-3 6 0
-8 1 0
20 7 0
16 17 0
-7 10 0
-18 4 0
-18 3 0
15 9 0
-11 11 0
-1 -16 0
-1 -11 0
-8 2 0
c 96 2 S
p cnf 20 40
12 -13 0
4 -2 0
6 -11 0
9 12 0
-5 19 0
18 15 0
8 17 0
-1 -2 0
-15 -12 0
-5 18 0
19 -9 0
14 -20 0
9 19 0
-14 -20 0
15 -8 0
19 -5 0
-19 10 0
1 -5 0
-3 15 0
-1 2 0
-6 17 0
-7 -6 0
-4 11 0
3 -10 0
-8 15 0
6 -5 0
4 11 0
-5 -7 0
14 3 0
18 -18 0
-1 -5 0
14 5 0
2 -7 0
18 12 0
13 -5 0
17 11 0
-3 16 0
-4 -16 0
-6 11 0
10 -5 0
c 97 2 U
p cnf 20 40
7 -12 0
-19 -18 0
1 -12 0
3 -16 0
-11 -10 0
9 -18 0
-6 -8 0
-3 -4 0
18 -20 0
2 -3 0
-6 -19 0
-17 -12 0
-19 -1 0
-1 -16 0
19 -1 0
18 -14 0
-2 -2 0
18 14 0
6 4 0
20 -11 0
-7 6 0
-10 -17 0
-19 -16 0
1 1 0
-10 6 0
-17 4 0
-13 -12 0
-17 -13 0
5 7 0
-1 -7 0
-16 3 0
-10 -7 0
1 7 0
-20 19 0
-9 -4 0
9 -5 0
-5 -14 0
-10 -20 0
-9 -4 0
-8 -14 0
c 98 2 U
p cnf 20 40
-12 12 0
2 -10 0
-16 -13 0
-12 1 0
10 2 0
-7 -13 0
-19 -9 0
-7 -14 0
-17 -13 0
11 6 0
-17 -6 0
15 17 0
-18 -18 0
-18 11 0
7 -2 0
-20 15 0
16 -14 0
13 11 0
-7 -11 0
-11 -14 0
-14 -18 0
-20 14 0
8 8 0
15 13 0
16 14 0
1 -20 0
-6 5 0
16 -20 0
-18 10 0
17 4 0
6 -11 0
-7 11 0
-14 18 0
-4 -20 0
-11 -13 0
-10 -5 0
-19 15 0
-16 -7 0
4 -5 0
15 -7 0
c 99 2 U
p cnf 20 40
13 -7 0
-8 -5 0
9 -17 0
20 7 0
-20 12 0
-7 -15 0
19 -3 0
16 -13 0
-9 -14 0
-12 -15 0
20 2 0
-5 6 0
-20 -17 0
-2 -1 0
16 3 0
-3 -10 0
13 5 0
-7 7 0
9 5 0
-16 -5 0
20 -4 0
-4 -10 0
6 -5 0
18 -16 0
-9 -12 0
3 -1 0
-11 13 0
11 13 0
-12 -6 0
12 -15 0
-10 -10 0
-11 8 0
10 3 0
14 3 0
11 -18 0
9 10 0
-20 10 0
20 7 0
-11 -12 0
12 -7 0
c 100 2 S
p cnf 20 40
5 -15 0
13 -14 0
-18 3 0
-9 7 0
8 -7 0
-5 12 0
-14 13 0
18 -13 0
-4 1 0
-5 -7 0
-1 15 0
-5 -20 0
20 19 0
17 18 0
16 -2 0
10 -9 0
14 19 0
-5 19 0
-6 -9 0
-2 -10 0
19 11 0
-1 -16 0
-17 -20 0
2 4 0
5 -18 0
-15 2 0
-2 -8 0
-4 -5 0
-3 -9 0
-13 18 0
16 11 0
-17 20 0
-14 7 0
3 13 0
-4 -8 0
13 1 0
-10 1 0
8 -1 0
8 -1 0
19 11 0
c 101 2 U
p cnf 20 40
-19 18 0
-15 -17 0
-20 10 0
7 -15 0
-9 -6 0
15 7 0
-11 13 0
-7 14 0
-10 4 0
9 -13 0
-14 13 0
1 -7 0
-12 12 0
1 -19 0
2 6 0
-3 13 0
19 6 0
17 -6 0
-3 2 0
18 4 0
-5 7 0
-5 5 0
11 -3 0
18 -15 0
7 -11 0
-9 9 0
7 4 0
-8 -9 0
-1 13 0
-19 -11 0
9 7 0
-11 5 0
12 13 0
-2 -17 0
-7 -4 0
-11 -12 0
-15 -12 0
5 18 0
10 -9 0
-14 15 0
c 102 2 U
p cnf 20 40
5 -6 0
13 20 0
-19 -17 0
13 -8 0
-3 6 0
-17 -17 0
16 -16 0
-8 11 0
7 20 0
-13 6 0
-7 -19 0
10 5 0
9 16 0
-17 -13 0
-7 18 0
-17 -13 0
-16 -10 0
17 9 0
-6 11 0
-7 8 0
-5 20 0
-18 -1 0
8 -9 0
-4 -5 0
14 11 0
15 8 0
7 -7 0
-15 -15 0
8 -3 0
13 -5 0
9 -14 0
6 -8 0
-3 -16 0
6 -6 0
-2 -5 0
15 -16 0
-11 15 0
-8 1 0
19 -18 0
-16 -3 0
